
  22   10
  10   10   10   10   10   10   10   10   10   10

   0   0   0   0   0   0   0   0   0   0   0   4 2 5 10 12 
   3  10  10  10  10  10  10  10  10  10  10   2 6 3 
   2  10  10  10  10  10  10  10  10  10  10   1 4 
   6  10  10  10  10  10  10  10  10  10  10   4 21 15 9 7 
   6  10  10  10  10  10  10  10  10  10  10   4 21 15 9 7 
   4  10  10  10  10  10  10  10  10  10  10   2 15 11 
   4  10  10  10  10  10  10  10  10  10  10   1 8 
  10  10  10  10  10  10  10  10  10  10  10   2 20 11 
   8  10  10  10  10  10  10  10  10  10  10   3 19 17 13 
   9  10  10  10  10  10  10  10  10  10  10   3 21 17 13 
   3  10  10  10  10  10  10  10  10  10  10   2 19 13 
   8  10  10  10  10  10  10  10  10  10  10   2 20 13 
  10  10  10  10  10  10  10  10  10  10  10   1 14 
   9  10  10  10  10  10  10  10  10  10  10   1 16 
   8  10  10  10  10  10  10  10  10  10  10   1 17 
   1  10  10  10  10  10  10  10  10  10  10   1 18 
   6  10  10  10  10  10  10  10  10  10  10   1 18 
   6  10  10  10  10  10  10  10  10  10  10   1 22
   9  10  10  10  10  10  10  10  10  10  10   1 22
   3  10  10  10  10  10  10  10  10  10  10   1 22
   3  10  10  10  10  10  10  10  10  10  10   1 22
   0   0   0   0   0   0   0   0   0   0   0   0 
